(set-logic UF)
(declare-sort Set 0)
(declare-sort Elem 0)
(declare-fun member (Elem Set) Bool)
(declare-fun subset (Set Set) Bool)
(declare-fun seteq (Set Set) Bool)
(declare-fun union (Set Set) Set)
(declare-fun intersection (Set Set) Set)
(declare-fun difference (Set Set) Set)
(declare-fun a () Set)
(declare-fun b () Set)
(declare-fun c () Set)
(assert (not (or (not (member (choice ((?x Elem)) (not (or (not (member ?x (union (intersection a b) (intersection a c)))) (member ?x (intersection a (union b c)))))) (union (intersection a b) (intersection a c)))) (member (choice ((?x Elem)) (not (or (not (member ?x (union (intersection a b) (intersection a c)))) (member ?x (intersection a (union b c)))))) (intersection a (union b c))))))
(assert (or (member (choice ((?x Elem)) (not (or (not (member ?x (union (intersection a b) (intersection a c)))) (member ?x (intersection a (union b c)))))) (union b c)) (not (or (member (choice ((?x Elem)) (not (or (not (member ?x (union (intersection a b) (intersection a c)))) (member ?x (intersection a (union b c)))))) b) (member (choice ((?x Elem)) (not (or (not (member ?x (union (intersection a b) (intersection a c)))) (member ?x (intersection a (union b c)))))) c))) (not (= (member (choice ((?x Elem)) (not (or (not (member ?x (union (intersection a b) (intersection a c)))) (member ?x (intersection a (union b c)))))) (union b c)) (or (member (choice ((?x Elem)) (not (or (not (member ?x (union (intersection a b) (intersection a c)))) (member ?x (intersection a (union b c)))))) b) (member (choice ((?x Elem)) (not (or (not (member ?x (union (intersection a b) (intersection a c)))) (member ?x (intersection a (union b c)))))) c))))))
(assert (= (member (choice ((?x Elem)) (not (or (not (member ?x (union (intersection a b) (intersection a c)))) (member ?x (intersection a (union b c)))))) (union b c)) (or (member (choice ((?x Elem)) (not (or (not (member ?x (union (intersection a b) (intersection a c)))) (member ?x (intersection a (union b c)))))) b) (member (choice ((?x Elem)) (not (or (not (member ?x (union (intersection a b) (intersection a c)))) (member ?x (intersection a (union b c)))))) c))))
(assert (or (or (member (choice ((?x Elem)) (not (or (not (member ?x (union (intersection a b) (intersection a c)))) (member ?x (intersection a (union b c)))))) b) (member (choice ((?x Elem)) (not (or (not (member ?x (union (intersection a b) (intersection a c)))) (member ?x (intersection a (union b c)))))) c)) (not (member (choice ((?x Elem)) (not (or (not (member ?x (union (intersection a b) (intersection a c)))) (member ?x (intersection a (union b c)))))) c))))
(assert (or (and (member (choice ((?x Elem)) (not (or (not (member ?x (union (intersection a b) (intersection a c)))) (member ?x (intersection a (union b c)))))) a) (member (choice ((?x Elem)) (not (or (not (member ?x (union (intersection a b) (intersection a c)))) (member ?x (intersection a (union b c)))))) (union b c))) (not (member (choice ((?x Elem)) (not (or (not (member ?x (union (intersection a b) (intersection a c)))) (member ?x (intersection a (union b c)))))) a)) (not (member (choice ((?x Elem)) (not (or (not (member ?x (union (intersection a b) (intersection a c)))) (member ?x (intersection a (union b c)))))) (union b c)))))
(assert (or (member (choice ((?x Elem)) (not (or (not (member ?x (union (intersection a b) (intersection a c)))) (member ?x (intersection a (union b c)))))) c) (not (and (member (choice ((?x Elem)) (not (or (not (member ?x (union (intersection a b) (intersection a c)))) (member ?x (intersection a (union b c)))))) a) (member (choice ((?x Elem)) (not (or (not (member ?x (union (intersection a b) (intersection a c)))) (member ?x (intersection a (union b c)))))) c)))))
(assert (or (member (choice ((?x Elem)) (not (or (not (member ?x (union (intersection a b) (intersection a c)))) (member ?x (intersection a (union b c)))))) a) (not (and (member (choice ((?x Elem)) (not (or (not (member ?x (union (intersection a b) (intersection a c)))) (member ?x (intersection a (union b c)))))) a) (member (choice ((?x Elem)) (not (or (not (member ?x (union (intersection a b) (intersection a c)))) (member ?x (intersection a (union b c)))))) c)))))
(assert (or (not (member (choice ((?x Elem)) (not (or (not (member ?x (union (intersection a b) (intersection a c)))) (member ?x (intersection a (union b c)))))) (intersection a c))) (and (member (choice ((?x Elem)) (not (or (not (member ?x (union (intersection a b) (intersection a c)))) (member ?x (intersection a (union b c)))))) a) (member (choice ((?x Elem)) (not (or (not (member ?x (union (intersection a b) (intersection a c)))) (member ?x (intersection a (union b c)))))) c)) (not (= (member (choice ((?x Elem)) (not (or (not (member ?x (union (intersection a b) (intersection a c)))) (member ?x (intersection a (union b c)))))) (intersection a c)) (and (member (choice ((?x Elem)) (not (or (not (member ?x (union (intersection a b) (intersection a c)))) (member ?x (intersection a (union b c)))))) a) (member (choice ((?x Elem)) (not (or (not (member ?x (union (intersection a b) (intersection a c)))) (member ?x (intersection a (union b c)))))) c))))))
(assert (= (member (choice ((?x Elem)) (not (or (not (member ?x (union (intersection a b) (intersection a c)))) (member ?x (intersection a (union b c)))))) (intersection a c)) (and (member (choice ((?x Elem)) (not (or (not (member ?x (union (intersection a b) (intersection a c)))) (member ?x (intersection a (union b c)))))) a) (member (choice ((?x Elem)) (not (or (not (member ?x (union (intersection a b) (intersection a c)))) (member ?x (intersection a (union b c)))))) c))))
(assert (or (member (choice ((?x Elem)) (not (or (not (member ?x (union (intersection a b) (intersection a c)))) (member ?x (intersection a (union b c)))))) (intersection a b)) (member (choice ((?x Elem)) (not (or (not (member ?x (union (intersection a b) (intersection a c)))) (member ?x (intersection a (union b c)))))) (intersection a c)) (not (or (member (choice ((?x Elem)) (not (or (not (member ?x (union (intersection a b) (intersection a c)))) (member ?x (intersection a (union b c)))))) (intersection a b)) (member (choice ((?x Elem)) (not (or (not (member ?x (union (intersection a b) (intersection a c)))) (member ?x (intersection a (union b c)))))) (intersection a c))))))
(assert (or (not (member (choice ((?x Elem)) (not (or (not (member ?x (union (intersection a b) (intersection a c)))) (member ?x (intersection a (union b c)))))) (intersection a b))) (and (member (choice ((?x Elem)) (not (or (not (member ?x (union (intersection a b) (intersection a c)))) (member ?x (intersection a (union b c)))))) a) (member (choice ((?x Elem)) (not (or (not (member ?x (union (intersection a b) (intersection a c)))) (member ?x (intersection a (union b c)))))) b)) (not (= (member (choice ((?x Elem)) (not (or (not (member ?x (union (intersection a b) (intersection a c)))) (member ?x (intersection a (union b c)))))) (intersection a b)) (and (member (choice ((?x Elem)) (not (or (not (member ?x (union (intersection a b) (intersection a c)))) (member ?x (intersection a (union b c)))))) a) (member (choice ((?x Elem)) (not (or (not (member ?x (union (intersection a b) (intersection a c)))) (member ?x (intersection a (union b c)))))) b))))))
(assert (= (member (choice ((?x Elem)) (not (or (not (member ?x (union (intersection a b) (intersection a c)))) (member ?x (intersection a (union b c)))))) (intersection a b)) (and (member (choice ((?x Elem)) (not (or (not (member ?x (union (intersection a b) (intersection a c)))) (member ?x (intersection a (union b c)))))) a) (member (choice ((?x Elem)) (not (or (not (member ?x (union (intersection a b) (intersection a c)))) (member ?x (intersection a (union b c)))))) b))))
(assert (or (and (member (choice ((?x Elem)) (not (or (not (member ?x (union (intersection a b) (intersection a c)))) (member ?x (intersection a (union b c)))))) a) (member (choice ((?x Elem)) (not (or (not (member ?x (union (intersection a b) (intersection a c)))) (member ?x (intersection a (union b c)))))) (union b c))) (not (and (member (choice ((?x Elem)) (not (or (not (member ?x (union (intersection a b) (intersection a c)))) (member ?x (intersection a (union b c)))))) a) (member (choice ((?x Elem)) (not (or (not (member ?x (union (intersection a b) (intersection a c)))) (member ?x (intersection a (union b c)))))) b)))))
(assert (or (member (choice ((?x Elem)) (not (or (not (member ?x (union (intersection a b) (intersection a c)))) (member ?x (intersection a (union b c)))))) (intersection a (union b c))) (not (and (member (choice ((?x Elem)) (not (or (not (member ?x (union (intersection a b) (intersection a c)))) (member ?x (intersection a (union b c)))))) a) (member (choice ((?x Elem)) (not (or (not (member ?x (union (intersection a b) (intersection a c)))) (member ?x (intersection a (union b c)))))) (union b c)))) (not (= (member (choice ((?x Elem)) (not (or (not (member ?x (union (intersection a b) (intersection a c)))) (member ?x (intersection a (union b c)))))) (intersection a (union b c))) (and (member (choice ((?x Elem)) (not (or (not (member ?x (union (intersection a b) (intersection a c)))) (member ?x (intersection a (union b c)))))) a) (member (choice ((?x Elem)) (not (or (not (member ?x (union (intersection a b) (intersection a c)))) (member ?x (intersection a (union b c)))))) (union b c)))))))
(assert (= (member (choice ((?x Elem)) (not (or (not (member ?x (union (intersection a b) (intersection a c)))) (member ?x (intersection a (union b c)))))) (intersection a (union b c))) (and (member (choice ((?x Elem)) (not (or (not (member ?x (union (intersection a b) (intersection a c)))) (member ?x (intersection a (union b c)))))) a) (member (choice ((?x Elem)) (not (or (not (member ?x (union (intersection a b) (intersection a c)))) (member ?x (intersection a (union b c)))))) (union b c)))))
(assert (or (not (member (choice ((?x Elem)) (not (or (not (member ?x (union (intersection a b) (intersection a c)))) (member ?x (intersection a (union b c)))))) (union (intersection a b) (intersection a c)))) (or (member (choice ((?x Elem)) (not (or (not (member ?x (union (intersection a b) (intersection a c)))) (member ?x (intersection a (union b c)))))) (intersection a b)) (member (choice ((?x Elem)) (not (or (not (member ?x (union (intersection a b) (intersection a c)))) (member ?x (intersection a (union b c)))))) (intersection a c))) (not (= (member (choice ((?x Elem)) (not (or (not (member ?x (union (intersection a b) (intersection a c)))) (member ?x (intersection a (union b c)))))) (union (intersection a b) (intersection a c))) (or (member (choice ((?x Elem)) (not (or (not (member ?x (union (intersection a b) (intersection a c)))) (member ?x (intersection a (union b c)))))) (intersection a b)) (member (choice ((?x Elem)) (not (or (not (member ?x (union (intersection a b) (intersection a c)))) (member ?x (intersection a (union b c)))))) (intersection a c)))))))
(assert (= (member (choice ((?x Elem)) (not (or (not (member ?x (union (intersection a b) (intersection a c)))) (member ?x (intersection a (union b c)))))) (union (intersection a b) (intersection a c))) (or (member (choice ((?x Elem)) (not (or (not (member ?x (union (intersection a b) (intersection a c)))) (member ?x (intersection a (union b c)))))) (intersection a b)) (member (choice ((?x Elem)) (not (or (not (member ?x (union (intersection a b) (intersection a c)))) (member ?x (intersection a (union b c)))))) (intersection a c)))))
(assert (or (or (not (member (choice ((?x Elem)) (not (or (not (member ?x (union (intersection a b) (intersection a c)))) (member ?x (intersection a (union b c)))))) (union (intersection a b) (intersection a c)))) (member (choice ((?x Elem)) (not (or (not (member ?x (union (intersection a b) (intersection a c)))) (member ?x (intersection a (union b c)))))) (intersection a (union b c)))) (not (member (choice ((?x Elem)) (not (or (not (member ?x (union (intersection a b) (intersection a c)))) (member ?x (intersection a (union b c)))))) (intersection a (union b c))))))
(assert (or (member (choice ((?x Elem)) (not (or (not (member ?x (union (intersection a b) (intersection a c)))) (member ?x (intersection a (union b c)))))) (union (intersection a b) (intersection a c))) (or (not (member (choice ((?x Elem)) (not (or (not (member ?x (union (intersection a b) (intersection a c)))) (member ?x (intersection a (union b c)))))) (union (intersection a b) (intersection a c)))) (member (choice ((?x Elem)) (not (or (not (member ?x (union (intersection a b) (intersection a c)))) (member ?x (intersection a (union b c)))))) (intersection a (union b c))))))
(check-sat)
(exit)
